35640
0 1 1 0 0 0 0 0 1 0 0 0 1 1 0 0 0 1 1 1 0 1 0 0 1 0 0 0 1 1 
18 19 21 24 2 12 21 28 18 28 29 28 13 1 28 18 1 13 24 24 18 21 2 24 13 18 24 19 29 2 19 19 19 21 28 12 8 8 24 21 18 8 12 29 8 19 13 21 19 17 24 24 24 21 8 12 18 8 18 18 29 2 18 8 13 12 2 17 28 12 18 12 19 8 13 13 8 17 8 24 13 17 8 12 29 13 19 2 24 18 28 19 18 12 2 13 28 12 17 28 28 21 12 18 29 24 29 24 24 13 19 29 18 12 12 8 28 18 17 8 8 12 17 19 19 21 2 12 19 17 28 24 12 8 1 8 1 13 28 17 12 18 12 12 18 2 24 21 24 18 24 17 13 17 8 28 2 21 13 13 13 24 13 2 2 28 1 29 1 21 1 8 19 17 29 2 17 13 29 13 2 21 2 19 28 8 28 13 17 21 2 21 19 29 28 19 28 21 17 19 
